* ENCODING=ISO-8859-1
NAME          CPLEX
ROWS
 N  obj1    
 G  c1      
 G  c2      
 G  c3      
 G  c4      
 G  c5      
 G  c6      
 G  c7      
 G  c8      
 G  c9      
 G  c10     
 G  c11     
 G  c12     
 G  c13     
 G  c14     
 G  c15     
 G  c16     
 G  c17     
 G  c18     
 G  c19     
 G  c20     
 G  c21     
 G  c22     
 G  c23     
 G  c24     
 G  c25     
 G  c26     
 G  c27     
 G  c28     
 G  c29     
 G  c30     
 G  c31     
 G  c32     
 G  c33     
 G  c34     
 G  c35     
 G  c36     
 G  c37     
 G  c38     
 G  c39     
 G  c40     
 G  c41     
 G  c42     
 G  c43     
 G  c44     
 G  c45     
 G  c46     
 G  c47     
 G  c48     
 G  c49     
 G  c50     
COLUMNS
    MARK0000  'MARKER'                 'INTORG'
    x1        obj1                            1
    x1        c3                            880
    x1        c5                            296
    x1        c23                           929
    x1        c29                           301
    x1        c33                           754
    x1        c36                           119
    x1        c39                           113
    x1        c49                           291
    x2        obj1                            1
    x2        c3                            603
    x2        c22                           383
    x2        c24                           245
    x2        c39                           106
    x2        c47                           331
    x2        c50                           159
    x3        obj1                            1
    x3        c5                            484
    x3        c13                           276
    x3        c19                           883
    x3        c34                           927
    x3        c41                           340
    x4        obj1                            1
    x4        c2                            168
    x4        c15                           293
    x4        c32                           228
    x4        c43                           251
    x4        c45                           535
    x5        obj1                            1
    x5        c1                            162
    x5        c2                            974
    x5        c8                            999
    x5        c18                           235
    x5        c35                           879
    x5        c46                           763
    x6        obj1                            1
    x6        c1                            530
    x6        c5                            441
    x6        c25                           416
    x6        c26                           766
    x6        c45                           967
    x7        obj1                            1
    x7        c7                            602
    x7        c16                           939
    x7        c21                           224
    x7        c23                           474
    x7        c26                           500
    x7        c39                           367
    x7        c45                           612
    x7        c49                           383
    x7        c50                           970
    x8        obj1                            1
    x8        c10                           352
    x9        obj1                            1
    x9        c9                            273
    x9        c12                           637
    x9        c19                           776
    x9        c21                           792
    x9        c36                           135
    x10       obj1                            1
    x10       c40                           331
    x10       c47                           644
    x11       obj1                            1
    x11       c5                            315
    x11       c25                           714
    x11       c29                           258
    x11       c42                           963
    x12       obj1                            1
    x12       c1                            834
    x12       c6                            495
    x12       c13                           837
    x12       c20                           546
    x12       c28                           945
    x13       obj1                            1
    x13       c4                            106
    x13       c10                           682
    x13       c17                           233
    x13       c24                           523
    x13       c25                           916
    x13       c26                           929
    x13       c34                           374
    x13       c42                           726
    x14       obj1                            1
    x14       c4                            926
    x14       c19                           570
    x14       c33                           430
    x14       c37                           957
    x15       obj1                            1
    x15       c3                            666
    x15       c4                            578
    x15       c29                           164
    x15       c30                           348
    x15       c33                           520
    x15       c39                           250
    x15       c44                           924
    x15       c47                           831
    x15       c49                           757
    x15       c50                           637
    x16       obj1                            1
    x16       c5                            449
    x16       c8                            634
    x16       c15                           495
    x16       c39                           986
    x16       c41                           176
    x16       c43                           420
    x16       c44                           232
    x16       c45                           408
    x16       c46                           993
    x17       obj1                            1
    x18       obj1                            1
    x18       c21                           908
    x18       c35                           617
    x18       c37                           917
    x18       c38                           120
    x19       obj1                            1
    x19       c11                           724
    x19       c17                           855
    x20       obj1                            1
    x20       c20                           968
    x20       c39                           446
    x21       obj1                            1
    x21       c18                           206
    x21       c37                           863
    x21       c38                           587
    x22       obj1                            1
    x22       c16                           130
    x22       c26                           131
    x22       c31                           103
    x23       obj1                            1
    x23       c1                            658
    x23       c6                            288
    x23       c8                            277
    x23       c21                           703
    x23       c33                           794
    x23       c36                           554
    x23       c39                           286
    x23       c40                           990
    x23       c43                           709
    x23       c48                           962
    x24       obj1                            1
    x24       c5                            596
    x24       c14                           355
    x24       c22                           469
    x24       c23                           688
    x24       c24                           905
    x24       c29                           144
    x24       c31                           410
    x25       obj1                            1
    x25       c17                           701
    x25       c18                           451
    x25       c49                           453
    x26       obj1                            1
    x26       c1                            597
    x26       c6                            976
    x26       c18                           936
    x26       c32                           276
    x27       obj1                            1
    x27       c4                            288
    x27       c22                           789
    x27       c23                           301
    x27       c37                           309
    x28       obj1                            1
    x28       c16                           272
    x28       c30                           477
    x28       c49                           263
    x29       obj1                            1
    x29       c11                           326
    x29       c13                           212
    x29       c14                           399
    x29       c47                           839
    x30       obj1                            1
    x30       c4                            470
    x30       c13                           420
    x30       c19                           164
    x30       c27                           489
    x30       c35                           434
    x30       c41                           566
    x31       obj1                            1
    x31       c7                            846
    x31       c20                           230
    x31       c28                           233
    x31       c29                           994
    x31       c30                           559
    x31       c38                           545
    x31       c40                           891
    x31       c43                           639
    x31       c44                           921
    x31       c48                           166
    x31       c50                           153
    x32       obj1                            1
    x32       c2                            679
    x32       c7                            361
    x32       c8                            469
    x32       c22                           270
    x32       c42                           296
    x32       c46                           135
    x32       c47                           839
    x33       obj1                            1
    x33       c8                            742
    x33       c26                           627
    x33       c27                           266
    x33       c28                           772
    x33       c38                           982
    x33       c45                           649
    x34       obj1                            1
    x34       c15                           682
    x34       c19                           934
    x34       c25                           505
    x34       c32                           194
    x34       c47                           495
    x35       obj1                            1
    x35       c5                            424
    x35       c21                           405
    x35       c31                           584
    x35       c33                           509
    x35       c36                           487
    x36       obj1                            1
    x36       c8                            582
    x36       c9                            515
    x36       c14                           444
    x36       c42                           739
    x36       c49                           161
    x37       obj1                            1
    x37       c31                           241
    x37       c37                           506
    x38       obj1                            1
    x38       c16                           309
    x38       c24                           927
    x38       c27                           690
    x38       c32                           787
    x38       c48                           945
    x39       obj1                            1
    x39       c9                            943
    x39       c11                           739
    x39       c18                           754
    x39       c20                           309
    x39       c29                           100
    x39       c45                           136
    x39       c48                           110
    x39       c50                           975
    x40       obj1                            1
    x40       c20                           271
    x40       c33                           990
    x40       c43                           481
    x41       obj1                            1
    x41       c2                            583
    x41       c10                           230
    x41       c11                           191
    x41       c21                           103
    x41       c36                           588
    x41       c43                           441
    x41       c45                           673
    x42       obj1                            1
    x42       c1                            266
    x42       c23                           785
    x42       c36                           271
    x42       c41                           237
    x42       c43                           950
    x43       obj1                            1
    x43       c2                            723
    x43       c9                            364
    x43       c12                           306
    x43       c25                           749
    x43       c48                           725
    x44       obj1                            1
    x44       c3                            962
    x44       c18                           455
    x44       c32                           558
    x45       obj1                            1
    x45       c12                           422
    x45       c30                           641
    x45       c47                           870
    x45       c48                           772
    x46       obj1                            1
    x46       c16                           167
    x46       c22                           630
    x46       c32                           584
    x46       c34                           668
    x46       c42                           874
    x47       obj1                            1
    x47       c23                           220
    x47       c46                           350
    x48       obj1                            1
    x48       c7                            290
    x48       c12                           842
    x48       c13                           442
    x48       c19                           349
    x48       c37                           634
    x48       c46                           274
    x49       obj1                            1
    x49       c4                            161
    x49       c19                           422
    x49       c23                           207
    x49       c41                           426
    x50       obj1                            1
    x50       c15                           650
    x50       c31                           310
    x50       c32                           508
    x50       c35                           946
    x50       c38                           323
    x50       c46                           695
    MARK0001  'MARKER'                 'INTEND'
RHS
    rhs       c1                           1524
    rhs       c2                           1564
    rhs       c3                           1556
    rhs       c4                           1265
    rhs       c5                           1503
    rhs       c6                            880
    rhs       c7                           1050
    rhs       c8                           1852
    rhs       c9                           1048
    rhs       c10                           632
    rhs       c11                           990
    rhs       c12                          1104
    rhs       c13                          1094
    rhs       c14                           599
    rhs       c15                          1060
    rhs       c16                           909
    rhs       c17                           895
    rhs       c18                          1519
    rhs       c19                          2049
    rhs       c20                          1162
    rhs       c21                          1568
    rhs       c22                          1271
    rhs       c23                          1802
    rhs       c24                          1300
    rhs       c25                          1650
    rhs       c26                          1477
    rhs       c27                           723
    rhs       c28                           975
    rhs       c29                           981
    rhs       c30                          1013
    rhs       c31                           824
    rhs       c32                          1568
    rhs       c33                          1999
    rhs       c34                           985
    rhs       c35                          1438
    rhs       c36                          1077
    rhs       c37                          2093
    rhs       c38                          1279
    rhs       c39                          1277
    rhs       c40                          1106
    rhs       c41                           873
    rhs       c42                          1799
    rhs       c43                          1946
    rhs       c44                          1039
    rhs       c45                          1990
    rhs       c46                          1605
    rhs       c47                          2425
    rhs       c48                          1840
    rhs       c49                          1154
    rhs       c50                          1447
BOUNDS
 LI bnd       x1        0
 LI bnd       x2        0
 LI bnd       x3        0
 LI bnd       x4        0
 LI bnd       x5        0
 LI bnd       x6        0
 LI bnd       x7        0
 LI bnd       x8        0
 LI bnd       x9        0
 LI bnd       x10       0
 LI bnd       x11       0
 LI bnd       x12       0
 LI bnd       x13       0
 LI bnd       x14       0
 LI bnd       x15       0
 LI bnd       x16       0
 LI bnd       x17       0
 LI bnd       x18       0
 LI bnd       x19       0
 LI bnd       x20       0
 LI bnd       x21       0
 LI bnd       x22       0
 LI bnd       x23       0
 LI bnd       x24       0
 LI bnd       x25       0
 LI bnd       x26       0
 LI bnd       x27       0
 LI bnd       x28       0
 LI bnd       x29       0
 LI bnd       x30       0
 LI bnd       x31       0
 LI bnd       x32       0
 LI bnd       x33       0
 LI bnd       x34       0
 LI bnd       x35       0
 LI bnd       x36       0
 LI bnd       x37       0
 LI bnd       x38       0
 LI bnd       x39       0
 LI bnd       x40       0
 LI bnd       x41       0
 LI bnd       x42       0
 LI bnd       x43       0
 LI bnd       x44       0
 LI bnd       x45       0
 LI bnd       x46       0
 LI bnd       x47       0
 LI bnd       x48       0
 LI bnd       x49       0
 LI bnd       x50       0
ENDATA
